p cnf 150 1276
1 2 3 4 5 0
6 7 8 9 10 0
11 12 13 14 15 0
16 17 18 19 20 0
21 22 23 24 25 0
26 27 28 29 30 0
31 32 33 34 35 0
36 37 38 39 40 0
41 42 43 44 45 0
46 47 48 49 50 0
51 52 53 54 55 0
56 57 58 59 60 0
61 62 63 64 65 0
66 67 68 69 70 0
71 72 73 74 75 0
76 77 78 79 80 0
81 82 83 84 85 0
86 87 88 89 90 0
91 92 93 94 95 0
96 97 98 99 100 0
101 102 103 104 105 0
106 107 108 109 110 0
111 112 113 114 115 0
116 117 118 119 120 0
121 122 123 124 125 0
126 127 128 129 130 0
131 132 133 134 135 0
136 137 138 139 140 0
141 142 143 144 145 0
146 147 148 149 150 0
-1 -2 0
-1 -3 0
-1 -4 0
-1 -5 0
-2 -3 0
-2 -4 0
-2 -5 0
-3 -4 0
-3 -5 0
-4 -5 0
-6 -7 0
-6 -8 0
-6 -9 0
-6 -10 0
-7 -8 0
-7 -9 0
-7 -10 0
-8 -9 0
-8 -10 0
-9 -10 0
-11 -12 0
-11 -13 0
-11 -14 0
-11 -15 0
-12 -13 0
-12 -14 0
-12 -15 0
-13 -14 0
-13 -15 0
-14 -15 0
-16 -17 0
-16 -18 0
-16 -19 0
-16 -20 0
-17 -18 0
-17 -19 0
-17 -20 0
-18 -19 0
-18 -20 0
-19 -20 0
-21 -22 0
-21 -23 0
-21 -24 0
-21 -25 0
-22 -23 0
-22 -24 0
-22 -25 0
-23 -24 0
-23 -25 0
-24 -25 0
-26 -27 0
-26 -28 0
-26 -29 0
-26 -30 0
-27 -28 0
-27 -29 0
-27 -30 0
-28 -29 0
-28 -30 0
-29 -30 0
-31 -32 0
-31 -33 0
-31 -34 0
-31 -35 0
-32 -33 0
-32 -34 0
-32 -35 0
-33 -34 0
-33 -35 0
-34 -35 0
-36 -37 0
-36 -38 0
-36 -39 0
-36 -40 0
-37 -38 0
-37 -39 0
-37 -40 0
-38 -39 0
-38 -40 0
-39 -40 0
-41 -42 0
-41 -43 0
-41 -44 0
-41 -45 0
-42 -43 0
-42 -44 0
-42 -45 0
-43 -44 0
-43 -45 0
-44 -45 0
-46 -47 0
-46 -48 0
-46 -49 0
-46 -50 0
-47 -48 0
-47 -49 0
-47 -50 0
-48 -49 0
-48 -50 0
-49 -50 0
-51 -52 0
-51 -53 0
-51 -54 0
-51 -55 0
-52 -53 0
-52 -54 0
-52 -55 0
-53 -54 0
-53 -55 0
-54 -55 0
-56 -57 0
-56 -58 0
-56 -59 0
-56 -60 0
-57 -58 0
-57 -59 0
-57 -60 0
-58 -59 0
-58 -60 0
-59 -60 0
-61 -62 0
-61 -63 0
-61 -64 0
-61 -65 0
-62 -63 0
-62 -64 0
-62 -65 0
-63 -64 0
-63 -65 0
-64 -65 0
-66 -67 0
-66 -68 0
-66 -69 0
-66 -70 0
-67 -68 0
-67 -69 0
-67 -70 0
-68 -69 0
-68 -70 0
-69 -70 0
-71 -72 0
-71 -73 0
-71 -74 0
-71 -75 0
-72 -73 0
-72 -74 0
-72 -75 0
-73 -74 0
-73 -75 0
-74 -75 0
-76 -77 0
-76 -78 0
-76 -79 0
-76 -80 0
-77 -78 0
-77 -79 0
-77 -80 0
-78 -79 0
-78 -80 0
-79 -80 0
-81 -82 0
-81 -83 0
-81 -84 0
-81 -85 0
-82 -83 0
-82 -84 0
-82 -85 0
-83 -84 0
-83 -85 0
-84 -85 0
-86 -87 0
-86 -88 0
-86 -89 0
-86 -90 0
-87 -88 0
-87 -89 0
-87 -90 0
-88 -89 0
-88 -90 0
-89 -90 0
-91 -92 0
-91 -93 0
-91 -94 0
-91 -95 0
-92 -93 0
-92 -94 0
-92 -95 0
-93 -94 0
-93 -95 0
-94 -95 0
-96 -97 0
-96 -98 0
-96 -99 0
-96 -100 0
-97 -98 0
-97 -99 0
-97 -100 0
-98 -99 0
-98 -100 0
-99 -100 0
-101 -102 0
-101 -103 0
-101 -104 0
-101 -105 0
-102 -103 0
-102 -104 0
-102 -105 0
-103 -104 0
-103 -105 0
-104 -105 0
-106 -107 0
-106 -108 0
-106 -109 0
-106 -110 0
-107 -108 0
-107 -109 0
-107 -110 0
-108 -109 0
-108 -110 0
-109 -110 0
-111 -112 0
-111 -113 0
-111 -114 0
-111 -115 0
-112 -113 0
-112 -114 0
-112 -115 0
-113 -114 0
-113 -115 0
-114 -115 0
-116 -117 0
-116 -118 0
-116 -119 0
-116 -120 0
-117 -118 0
-117 -119 0
-117 -120 0
-118 -119 0
-118 -120 0
-119 -120 0
-121 -122 0
-121 -123 0
-121 -124 0
-121 -125 0
-122 -123 0
-122 -124 0
-122 -125 0
-123 -124 0
-123 -125 0
-124 -125 0
-126 -127 0
-126 -128 0
-126 -129 0
-126 -130 0
-127 -128 0
-127 -129 0
-127 -130 0
-128 -129 0
-128 -130 0
-129 -130 0
-131 -132 0
-131 -133 0
-131 -134 0
-131 -135 0
-132 -133 0
-132 -134 0
-132 -135 0
-133 -134 0
-133 -135 0
-134 -135 0
-136 -137 0
-136 -138 0
-136 -139 0
-136 -140 0
-137 -138 0
-137 -139 0
-137 -140 0
-138 -139 0
-138 -140 0
-139 -140 0
-141 -142 0
-141 -143 0
-141 -144 0
-141 -145 0
-142 -143 0
-142 -144 0
-142 -145 0
-143 -144 0
-143 -145 0
-144 -145 0
-146 -147 0
-146 -148 0
-146 -149 0
-146 -150 0
-147 -148 0
-147 -149 0
-147 -150 0
-148 -149 0
-148 -150 0
-149 -150 0
-3 -102 0
-4 -101 0
-1 -102 0
-1 -105 0
-4 -103 0
-5 -102 0
-1 -104 0
-3 -105 0
-5 -105 0
-3 -101 0
-3 -103 0
-1 -101 0
-4 -104 0
-5 -101 0
-2 -101 0
-4 -102 0
-4 -105 0
-5 -104 0
-2 -105 0
-3 -104 0
-5 -103 0
-2 -104 0
-4 -112 0
-1 -115 0
-4 -111 0
-4 -114 0
-1 -111 0
-1 -112 0
-2 -114 0
-4 -113 0
-1 -114 0
-2 -112 0
-2 -115 0
-1 -113 0
-5 -113 0
-5 -115 0
-5 -112 0
-3 -111 0
-3 -113 0
-2 -111 0
-3 -114 0
-3 -112 0
-5 -111 0
-4 -115 0
-9 -28 0
-6 -26 0
-10 -26 0
-7 -30 0
-10 -30 0
-6 -30 0
-7 -26 0
-9 -26 0
-6 -28 0
-8 -27 0
-8 -30 0
-8 -29 0
-8 -26 0
-7 -29 0
-9 -30 0
-9 -29 0
-6 -29 0
-9 -27 0
-7 -28 0
-7 -27 0
-6 -27 0
-10 -27 0
-6 -79 0
-9 -79 0
-9 -77 0
-8 -77 0
-8 -76 0
-6 -78 0
-7 -80 0
-6 -76 0
-9 -76 0
-8 -79 0
-6 -77 0
-10 -78 0
-8 -78 0
-7 -76 0
-7 -77 0
-10 -79 0
-10 -77 0
-7 -78 0
-6 -80 0
-9 -78 0
-7 -79 0
-10 -80 0
-6 -96 0
-7 -100 0
-7 -97 0
-8 -99 0
-7 -96 0
-10 -96 0
-8 -100 0
-7 -98 0
-10 -97 0
-9 -100 0
-10 -99 0
-10 -98 0
-6 -98 0
-6 -100 0
-9 -96 0
-8 -97 0
-7 -99 0
-10 -100 0
-8 -96 0
-8 -98 0
-6 -97 0
-9 -99 0
-10 -125 0
-7 -122 0
-6 -125 0
-7 -121 0
-6 -121 0
-8 -122 0
-10 -122 0
-9 -122 0
-10 -124 0
-7 -124 0
-9 -125 0
-7 -123 0
-10 -121 0
-9 -123 0
-9 -121 0
-6 -123 0
-8 -121 0
-10 -123 0
-9 -124 0
-6 -122 0
-8 -125 0
-8 -123 0
-15 -78 0
-12 -76 0
-13 -80 0
-14 -79 0
-11 -80 0
-12 -78 0
-13 -76 0
-13 -78 0
-15 -76 0
-13 -77 0
-11 -76 0
-15 -80 0
-12 -77 0
-14 -76 0
-14 -78 0
-12 -80 0
-12 -79 0
-14 -80 0
-13 -79 0
-15 -79 0
-11 -78 0
-14 -77 0
-15 -100 0
-11 -97 0
-12 -96 0
-12 -97 0
-11 -99 0
-13 -98 0
-15 -96 0
-13 -96 0
-13 -97 0
-11 -100 0
-13 -100 0
-11 -98 0
-15 -98 0
-14 -100 0
-15 -99 0
-12 -99 0
-14 -96 0
-14 -98 0
-11 -96 0
-12 -98 0
-14 -99 0
-15 -97 0
-13 -113 0
-14 -115 0
-12 -115 0
-15 -114 0
-11 -113 0
-11 -112 0
-14 -113 0
-13 -112 0
-15 -113 0
-12 -112 0
-12 -111 0
-13 -114 0
-11 -115 0
-14 -112 0
-11 -111 0
-13 -111 0
-14 -114 0
-11 -114 0
-12 -114 0
-14 -111 0
-15 -111 0
-15 -112 0
-19 -100 0
-16 -97 0
-20 -100 0
-19 -98 0
-17 -98 0
-17 -97 0
-20 -96 0
-19 -96 0
-20 -99 0
-19 -97 0
-18 -100 0
-18 -99 0
-17 -99 0
-16 -100 0
-16 -99 0
-19 -99 0
-17 -100 0
-18 -97 0
-17 -96 0
-16 -98 0
-20 -98 0
-18 -98 0
-20 -114 0
-17 -114 0
-18 -111 0
-16 -111 0
-16 -115 0
-20 -113 0
-17 -115 0
-19 -112 0
-16 -113 0
-17 -112 0
-20 -111 0
-18 -115 0
-17 -113 0
-20 -112 0
-18 -113 0
-16 -114 0
-17 -111 0
-18 -114 0
-16 -112 0
-19 -113 0
-19 -111 0
-18 -112 0
-20 -118 0
-18 -116 0
-20 -116 0
-19 -118 0
-18 -119 0
-18 -117 0
-18 -118 0
-18 -120 0
-16 -118 0
-20 -120 0
-16 -117 0
-17 -120 0
-17 -116 0
-17 -117 0
-19 -116 0
-16 -116 0
-17 -119 0
-16 -120 0
-20 -119 0
-17 -118 0
-20 -117 0
-19 -117 0
-22 -32 0
-21 -34 0
-24 -34 0
-24 -33 0
-23 -34 0
-25 -31 0
-22 -33 0
-22 -34 0
-22 -31 0
-24 -31 0
-23 -31 0
-24 -35 0
-23 -33 0
-25 -33 0
-23 -35 0
-21 -32 0
-21 -35 0
-21 -31 0
-22 -35 0
-25 -32 0
-25 -35 0
-24 -32 0
-25 -70 0
-22 -66 0
-24 -67 0
-23 -68 0
-22 -68 0
-21 -67 0
-25 -69 0
-24 -66 0
-23 -69 0
-21 -70 0
-24 -68 0
-21 -66 0
-21 -69 0
-23 -66 0
-22 -70 0
-23 -67 0
-23 -70 0
-25 -67 0
-25 -68 0
-21 -68 0
-24 -69 0
-25 -66 0
-24 -82 0
-25 -85 0
-21 -81 0
-23 -85 0
-23 -84 0
-24 -83 0
-23 -81 0
-21 -83 0
-21 -85 0
-24 -85 0
-25 -81 0
-24 -84 0
-25 -82 0
-22 -81 0
-24 -81 0
-22 -85 0
-25 -84 0
-22 -83 0
-23 -83 0
-25 -83 0
-21 -82 0
-22 -84 0
-25 -134 0
-21 -135 0
-24 -133 0
-23 -134 0
-22 -134 0
-25 -131 0
-22 -133 0
-25 -135 0
-22 -131 0
-23 -131 0
-21 -134 0
-24 -134 0
-22 -132 0
-24 -131 0
-22 -135 0
-21 -131 0
-25 -133 0
-23 -133 0
-21 -133 0
-24 -135 0
-25 -132 0
-24 -132 0
-31 -69 0
-33 -69 0
-32 -69 0
-34 -68 0
-34 -69 0
-34 -66 0
-32 -67 0
-35 -66 0
-34 -70 0
-32 -66 0
-35 -69 0
-33 -66 0
-35 -68 0
-32 -70 0
-31 -70 0
-31 -66 0
-31 -67 0
-33 -70 0
-32 -68 0
-33 -67 0
-35 -70 0
-31 -68 0
-32 -80 0
-34 -80 0
-31 -78 0
-34 -79 0
-32 -77 0
-35 -80 0
-32 -79 0
-35 -78 0
-34 -77 0
-33 -80 0
-31 -79 0
-33 -76 0
-31 -76 0
-34 -78 0
-33 -77 0
-35 -79 0
-32 -76 0
-35 -76 0
-34 -76 0
-31 -80 0
-35 -77 0
-31 -77 0
-35 -141 0
-31 -143 0
-34 -141 0
-34 -143 0
-33 -143 0
-35 -145 0
-31 -142 0
-34 -144 0
-32 -141 0
-32 -143 0
-35 -143 0
-35 -144 0
-32 -144 0
-31 -144 0
-34 -142 0
-33 -141 0
-33 -142 0
-32 -145 0
-32 -142 0
-33 -145 0
-31 -145 0
-31 -141 0
-36 -108 0
-37 -109 0
-37 -108 0
-39 -110 0
-40 -108 0
-39 -107 0
-40 -107 0
-39 -106 0
-39 -109 0
-36 -107 0
-36 -109 0
-38 -106 0
-38 -110 0
-37 -106 0
-36 -106 0
-40 -106 0
-38 -107 0
-36 -110 0
-40 -110 0
-37 -107 0
-38 -109 0
-39 -108 0
-43 -64 0
-42 -64 0
-44 -64 0
-43 -65 0
-42 -65 0
-44 -61 0
-43 -62 0
-45 -63 0
-45 -64 0
-41 -64 0
-41 -65 0
-41 -63 0
-44 -65 0
-41 -61 0
-43 -61 0
-42 -61 0
-44 -63 0
-44 -62 0
-45 -62 0
-42 -63 0
-45 -65 0
-45 -61 0
-44 -146 0
-43 -150 0
-41 -150 0
-44 -150 0
-45 -150 0
-42 -150 0
-45 -147 0
-41 -147 0
-43 -148 0
-45 -149 0
-44 -148 0
-42 -146 0
-42 -147 0
-43 -149 0
-41 -148 0
-41 -146 0
-43 -147 0
-45 -148 0
-44 -147 0
-41 -149 0
-43 -146 0
-45 -146 0
-48 -137 0
-50 -138 0
-46 -136 0
-49 -139 0
-48 -136 0
-48 -139 0
-47 -138 0
-47 -140 0
-48 -138 0
-50 -140 0
-46 -140 0
-48 -140 0
-47 -139 0
-49 -137 0
-47 -137 0
-46 -137 0
-47 -136 0
-49 -136 0
-50 -139 0
-50 -136 0
-50 -137 0
-46 -138 0
-59 -61 0
-58 -62 0
-57 -63 0
-56 -64 0
-57 -65 0
-56 -63 0
-58 -65 0
-59 -65 0
-59 -64 0
-60 -61 0
-56 -61 0
-56 -65 0
-56 -62 0
-57 -64 0
-58 -61 0
-58 -64 0
-57 -61 0
-57 -62 0
-60 -62 0
-59 -63 0
-58 -63 0
-60 -64 0
-56 -75 0
-56 -71 0
-59 -74 0
-60 -72 0
-60 -75 0
-56 -72 0
-58 -75 0
-57 -71 0
-60 -71 0
-56 -74 0
-56 -73 0
-60 -73 0
-59 -72 0
-59 -75 0
-59 -71 0
-59 -73 0
-57 -74 0
-57 -73 0
-58 -73 0
-58 -72 0
-58 -74 0
-57 -75 0
-57 -99 0
-58 -96 0
-56 -99 0
-57 -100 0
-60 -100 0
-60 -96 0
-57 -97 0
-56 -100 0
-56 -98 0
-60 -98 0
-56 -97 0
-57 -96 0
-59 -99 0
-58 -97 0
-60 -99 0
-59 -96 0
-60 -97 0
-56 -96 0
-58 -98 0
-58 -100 0
-58 -99 0
-59 -98 0
-57 -113 0
-58 -111 0
-58 -114 0
-59 -111 0
-60 -113 0
-56 -111 0
-57 -112 0
-57 -111 0
-57 -114 0
-56 -112 0
-59 -114 0
-60 -111 0
-60 -114 0
-59 -115 0
-58 -112 0
-56 -114 0
-60 -112 0
-59 -113 0
-59 -112 0
-58 -115 0
-60 -115 0
-56 -115 0
-64 -75 0
-63 -71 0
-62 -71 0
-63 -73 0
-63 -74 0
-65 -73 0
-64 -74 0
-63 -75 0
-61 -71 0
-61 -72 0
-61 -73 0
-65 -74 0
-64 -73 0
-61 -75 0
-64 -72 0
-65 -75 0
-65 -72 0
-64 -71 0
-63 -72 0
-62 -73 0
-65 -71 0
-62 -74 0
-71 -77 0
-72 -80 0
-71 -79 0
-74 -77 0
-75 -78 0
-72 -79 0
-73 -79 0
-73 -77 0
-71 -78 0
-74 -78 0
-73 -80 0
-75 -76 0
-74 -76 0
-74 -79 0
-71 -80 0
-75 -80 0
-75 -79 0
-72 -78 0
-74 -80 0
-71 -76 0
-73 -78 0
-73 -76 0
-80 -130 0
-78 -128 0
-76 -128 0
-79 -127 0
-77 -127 0
-76 -129 0
-76 -127 0
-79 -130 0
-80 -129 0
-77 -126 0
-78 -130 0
-78 -129 0
-77 -128 0
-77 -130 0
-79 -126 0
-78 -126 0
-77 -129 0
-80 -127 0
-80 -126 0
-76 -130 0
-78 -127 0
-76 -126 0
-78 -132 0
-79 -131 0
-77 -135 0
-76 -131 0
-76 -134 0
-77 -131 0
-76 -133 0
-78 -134 0
-79 -135 0
-77 -133 0
-80 -131 0
-77 -134 0
-79 -133 0
-76 -132 0
-80 -134 0
-80 -132 0
-79 -132 0
-80 -133 0
-78 -135 0
-79 -134 0
-76 -135 0
-77 -132 0
-81 -114 0
-85 -115 0
-82 -115 0
-81 -113 0
-84 -114 0
-85 -111 0
-82 -111 0
-85 -114 0
-84 -112 0
-84 -111 0
-81 -112 0
-82 -113 0
-83 -111 0
-83 -115 0
-84 -113 0
-83 -113 0
-81 -115 0
-85 -112 0
-84 -115 0
-82 -114 0
-83 -112 0
-83 -114 0
-81 -134 0
-82 -134 0
-83 -133 0
-81 -132 0
-83 -135 0
-85 -135 0
-82 -135 0
-84 -132 0
-85 -134 0
-84 -135 0
-84 -131 0
-83 -131 0
-85 -132 0
-81 -131 0
-84 -133 0
-81 -133 0
-82 -131 0
-82 -132 0
-81 -135 0
-85 -131 0
-82 -133 0
-84 -134 0
-83 -150 0
-84 -148 0
-82 -147 0
-81 -147 0
-81 -148 0
-85 -149 0
-85 -150 0
-84 -147 0
-84 -150 0
-84 -146 0
-83 -147 0
-85 -147 0
-81 -149 0
-84 -149 0
-82 -150 0
-83 -148 0
-82 -146 0
-83 -149 0
-82 -149 0
-83 -146 0
-85 -148 0
-85 -146 0
-86 -101 0
-87 -102 0
-86 -104 0
-90 -105 0
-88 -104 0
-90 -101 0
-87 -105 0
-86 -103 0
-88 -105 0
-89 -101 0
-88 -101 0
-89 -105 0
-90 -103 0
-87 -104 0
-90 -102 0
-87 -103 0
-89 -102 0
-86 -105 0
-89 -104 0
-90 -104 0
-88 -103 0
-89 -103 0
-95 -116 0
-95 -120 0
-95 -119 0
-93 -116 0
-92 -117 0
-92 -120 0
-92 -116 0
-94 -116 0
-91 -118 0
-91 -120 0
-94 -119 0
-92 -118 0
-93 -120 0
-91 -117 0
-94 -120 0
-93 -119 0
-91 -119 0
-93 -118 0
-95 -117 0
-93 -117 0
-94 -118 0
-95 -118 0
-93 -147 0
-93 -146 0
-93 -149 0
-94 -149 0
-94 -146 0
-94 -147 0
-94 -148 0
-92 -150 0
-95 -150 0
-92 -146 0
-95 -148 0
-91 -147 0
-93 -148 0
-93 -150 0
-91 -150 0
-92 -148 0
-95 -146 0
-94 -150 0
-91 -146 0
-91 -149 0
-91 -148 0
-92 -147 0
-99 -120 0
-99 -116 0
-97 -119 0
-98 -120 0
-96 -118 0
-100 -120 0
-97 -118 0
-98 -116 0
-97 -117 0
-96 -117 0
-97 -120 0
-98 -118 0
-100 -117 0
-99 -118 0
-100 -118 0
-98 -119 0
-100 -116 0
-98 -117 0
-99 -119 0
-99 -117 0
-96 -116 0
-100 -119 0
-104 -144 0
-102 -142 0
-101 -141 0
-104 -143 0
-104 -142 0
-102 -145 0
-105 -142 0
-101 -143 0
-103 -143 0
-105 -145 0
-105 -144 0
-103 -141 0
-102 -141 0
-103 -145 0
-101 -145 0
-101 -142 0
-104 -145 0
-101 -144 0
-103 -142 0
-102 -144 0
-105 -143 0
-102 -143 0
-110 -129 0
-108 -129 0
-106 -130 0
-107 -126 0
-108 -126 0
-109 -129 0
-106 -126 0
-106 -129 0
-110 -127 0
-106 -128 0
-108 -127 0
-109 -126 0
-107 -128 0
-110 -126 0
-109 -127 0
-107 -129 0
-108 -130 0
-109 -130 0
-106 -127 0
-109 -128 0
-107 -130 0
-110 -128 0
-111 -149 0
-113 -147 0
-113 -149 0
-112 -147 0
-115 -150 0
-113 -148 0
-114 -150 0
-111 -148 0
-113 -146 0
-113 -150 0
-112 -149 0
-114 -149 0
-111 -150 0
-115 -147 0
-114 -147 0
-111 -146 0
-114 -146 0
-112 -148 0
-112 -146 0
-111 -147 0
-112 -150 0
-115 -146 0
-120 -135 0
-116 -134 0
-118 -133 0
-119 -133 0
-118 -132 0
-120 -132 0
-116 -135 0
-117 -133 0
-118 -131 0
-117 -131 0
-116 -131 0
-118 -134 0
-116 -133 0
-119 -132 0
-119 -134 0
-120 -133 0
-119 -131 0
-119 -135 0
-118 -135 0
-116 -132 0
-117 -135 0
-117 -134 0
-138 -145 0
-139 -142 0
-136 -143 0
-140 -141 0
-139 -144 0
-138 -143 0
-136 -142 0
-137 -141 0
-136 -144 0
-138 -141 0
-137 -142 0
-139 -143 0
-137 -143 0
-140 -144 0
-137 -145 0
-139 -141 0
-136 -141 0
-139 -145 0
-137 -144 0
-138 -144 0
-140 -143 0
-140 -142 0
